(set-logic QF_NRA)
(set-info :source |Benchmarks generated from hycomp (https://es-static.fbk.eu/tools/hycomp/). BMC instances of non-linear hybrid automata taken from: Alessandro Cimatti, Sergio Mover, Stefano Tonetta, A quantifier-free SMT encoding of non-linear hybrid automata, FMCAD 2012 and Alessandro Cimatti, Sergio Mover, Stefano Tonetta, Quantier-free encoding of invariants for Hybrid Systems, Formal Methods in System Design. This instance solves a BMC problem of depth 2 and uses the encoding obtained with quantifier elimination using redlog encoding. Contacts: Sergio Mover (mover@fbk.eu), Stefano Tonetta (tonettas@fbk.eu), Alessandro Cimatti (cimatti@fbk.eu).|)
(set-info :smt-lib-version 2.0)
(set-info :category "industrial")
(set-info :status unsat)
;; MathSAT API call trace
;; generated on Mon Mar 19 10:38:08 2012
(declare-fun b.y__AT0 () Real)
(declare-fun b.counter.0__AT0 () Bool)
(declare-fun b.EVENT.0__AT0 () Bool)
(declare-fun b.counter.3__AT0 () Bool)
(declare-fun b.counter.1__AT0 () Bool)
(declare-fun b.bool_atom__AT1 () Bool)
(declare-fun b.x__AT1 () Real)
(declare-fun b.event_is_timed__AT2 () Bool)
(declare-fun b.g__AT0 () Real)
(declare-fun b.speed_y__AT0 () Real)
(declare-fun b.event_is_timed__AT0 () Bool)
(declare-fun b.bool_atom__AT2 () Bool)
(declare-fun b.y__AT1 () Real)
(declare-fun b.y__AT2 () Real)
(declare-fun b.counter.2__AT0 () Bool)
(declare-fun b.counter.0__AT1 () Bool)
(declare-fun b.time__AT2 () Real)
(declare-fun b.delta__AT2 () Real)
(declare-fun b.counter.1__AT1 () Bool)
(declare-fun b.x__AT2 () Real)
(declare-fun b.EVENT.0__AT2 () Bool)
(declare-fun b.counter.2__AT1 () Bool)
(declare-fun b.EVENT.1__AT2 () Bool)
(declare-fun b.counter.3__AT1 () Bool)
(declare-fun b.bool_atom__AT0 () Bool)
(declare-fun b.x__AT0 () Real)
(declare-fun b.EVENT.1__AT0 () Bool)
(declare-fun b.counter.0__AT2 () Bool)
(declare-fun b.delta__AT1 () Real)
(declare-fun b.speed_y__AT1 () Real)
(declare-fun b.counter.1__AT2 () Bool)
(declare-fun b.speed_y__AT2 () Real)
(declare-fun b.time__AT1 () Real)
(declare-fun b.EVENT.0__AT1 () Bool)
(declare-fun b.counter.2__AT2 () Bool)
(declare-fun b.time__AT0 () Real)
(declare-fun b.EVENT.1__AT1 () Bool)
(declare-fun b.counter.3__AT2 () Bool)
(declare-fun b.delta__AT0 () Real)
(declare-fun b.event_is_timed__AT1 () Bool)
(assert (let ((.def_532 (* b.x__AT2 b.x__AT2)))
(let ((.def_528 (* 5.0 b.delta__AT2)))
(let ((.def_529 (* b.delta__AT2 .def_528)))
(let ((.def_530 (* (- 1.0) .def_529)))
(let ((.def_535 (+ .def_530 .def_532)))
(let ((.def_527 (* b.speed_y__AT2 b.delta__AT2)))
(let ((.def_536 (+ .def_527 .def_535)))
(let ((.def_537 (+ b.y__AT2 .def_536)))
(let ((.def_538 (<= 0.0 .def_537)))
(let ((.def_568 (not .def_538)))
(let ((.def_550 (* (- 10.0) b.delta__AT2)))
(let ((.def_551 (+ b.speed_y__AT2 .def_550)))
(let ((.def_552 (<= 0.0 .def_551)))
(let ((.def_569 (and .def_552 .def_568)))
(let ((.def_561 (+ b.y__AT2 .def_532)))
(let ((.def_566 (<= 0.0 .def_561)))
(let ((.def_563 (<= b.speed_y__AT2 0.0 )))
(let ((.def_567 (or .def_563 .def_566)))
(let ((.def_570 (or .def_567 .def_569)))
(let ((.def_562 (<= .def_561 0.0 )))
(let ((.def_564 (and .def_562 .def_563)))
(let ((.def_556 (<= .def_551 0.0 )))
(let ((.def_557 (not .def_556)))
(let ((.def_554 (= .def_537 0.0 )))
(let ((.def_555 (not .def_554)))
(let ((.def_558 (or .def_555 .def_557)))
(let ((.def_553 (or .def_538 .def_552)))
(let ((.def_559 (and .def_553 .def_558)))
(let ((.def_540 (* 20.0 b.x__AT2)))
(let ((.def_541 (* b.x__AT2 .def_540)))
(let ((.def_410 (* b.speed_y__AT2 b.speed_y__AT2)))
(let ((.def_542 (+ .def_410 .def_541)))
(let ((.def_543 (* 20.0 b.y__AT2)))
(let ((.def_545 (+ .def_543 .def_542)))
(let ((.def_548 (<= .def_545 0.0 )))
(let ((.def_549 (not .def_548)))
(let ((.def_560 (or .def_549 .def_559)))
(let ((.def_565 (or .def_560 .def_564)))
(let ((.def_571 (and .def_565 .def_570)))
(let ((.def_546 (<= 0.0 .def_545)))
(let ((.def_547 (not .def_546)))
(let ((.def_572 (or .def_547 .def_571)))
(let ((.def_525 (<= 0.0 b.delta__AT2)))
(let ((.def_526 (not .def_525)))
(let ((.def_539 (or .def_526 .def_538)))
(let ((.def_573 (and .def_539 .def_572)))
(let ((.def_500 (not b.EVENT.0__AT2)))
(let ((.def_498 (not b.EVENT.1__AT2)))
(let ((.def_522 (and .def_498 .def_500)))
(let ((.def_523 (not .def_522)))
(let ((.def_574 (or .def_523 .def_573)))
(let ((.def_202 (not b.counter.0__AT1)))
(let ((.def_515 (or b.counter.1__AT1 .def_202)))
(let ((.def_516 (or b.counter.2__AT1 .def_515)))
(let ((.def_192 (not b.counter.1__AT1)))
(let ((.def_510 (and .def_192 .def_202)))
(let ((.def_197 (not b.counter.2__AT1)))
(let ((.def_514 (or .def_197 .def_510)))
(let ((.def_517 (and .def_514 .def_516)))
(let ((.def_518 (or b.counter.3__AT1 .def_517)))
(let ((.def_511 (or b.counter.2__AT1 .def_510)))
(let ((.def_509 (or .def_192 .def_197)))
(let ((.def_512 (and .def_509 .def_511)))
(let ((.def_211 (not b.counter.3__AT1)))
(let ((.def_513 (or .def_211 .def_512)))
(let ((.def_519 (and .def_513 .def_518)))
(let ((.def_503 (* (- 1.0) b.x__AT2)))
(let ((.def_504 (* b.x__AT2 .def_503)))
(let ((.def_505 (<= .def_504 b.y__AT2)))
(let ((.def_68 (<= b.g__AT0 10.0 )))
(let ((.def_67 (<= 8.0 b.g__AT0)))
(let ((.def_69 (and .def_67 .def_68)))
(let ((.def_506 (and .def_69 .def_505)))
(let ((.def_501 (or .def_498 .def_500)))
(let ((.def_9 (not b.counter.0__AT2)))
(let ((.def_6 (not b.counter.1__AT2)))
(let ((.def_491 (or .def_6 .def_9)))
(let ((.def_495 (or b.counter.3__AT2 .def_491)))
(let ((.def_492 (or b.counter.2__AT2 .def_491)))
(let ((.def_4 (not b.counter.2__AT2)))
(let ((.def_490 (or .def_4 .def_9)))
(let ((.def_493 (and .def_490 .def_492)))
(let ((.def_14 (not b.counter.3__AT2)))
(let ((.def_494 (or .def_14 .def_493)))
(let ((.def_496 (and .def_494 .def_495)))
(let ((.def_502 (and .def_496 .def_501)))
(let ((.def_507 (and .def_502 .def_506)))
(let ((.def_311 (<= 0.0 b.delta__AT1)))
(let ((.def_287 (not b.EVENT.0__AT1)))
(let ((.def_285 (not b.EVENT.1__AT1)))
(let ((.def_308 (and .def_285 .def_287)))
(let ((.def_309 (not .def_308)))
(let ((.def_486 (or .def_309 .def_311)))
(let ((.def_487 (or b.EVENT.1__AT1 .def_486)))
(let ((.def_397 (= b.bool_atom__AT1 b.bool_atom__AT2)))
(let ((.def_393 (= b.counter.0__AT2 b.counter.0__AT1)))
(let ((.def_391 (= b.counter.1__AT2 b.counter.1__AT1)))
(let ((.def_389 (= b.counter.2__AT2 b.counter.2__AT1)))
(let ((.def_388 (= b.counter.3__AT2 b.counter.3__AT1)))
(let ((.def_390 (and .def_388 .def_389)))
(let ((.def_392 (and .def_390 .def_391)))
(let ((.def_394 (and .def_392 .def_393)))
(let ((.def_482 (and .def_394 .def_397)))
(let ((.def_483 (or .def_309 .def_482)))
(let ((.def_484 (or b.EVENT.1__AT1 .def_483)))
(let ((.def_243 (* (- 1.0) b.g__AT0)))
(let ((.def_470 (* .def_243 b.delta__AT1)))
(let ((.def_471 (* (- 1.0) b.speed_y__AT2)))
(let ((.def_474 (+ .def_471 .def_470)))
(let ((.def_475 (+ b.speed_y__AT1 .def_474)))
(let ((.def_476 (= .def_475 0.0 )))
(let ((.def_460 (* b.delta__AT1 b.delta__AT1)))
(let ((.def_246 (* (/ 1 2) .def_243)))
(let ((.def_461 (* .def_246 .def_460)))
(let ((.def_462 (* (- 1.0) b.y__AT2)))
(let ((.def_466 (+ .def_462 .def_461)))
(let ((.def_313 (* b.speed_y__AT1 b.delta__AT1)))
(let ((.def_467 (+ .def_313 .def_466)))
(let ((.def_468 (+ b.y__AT1 .def_467)))
(let ((.def_469 (= .def_468 0.0 )))
(let ((.def_477 (and .def_469 .def_476)))
(let ((.def_380 (= b.x__AT1 b.x__AT2)))
(let ((.def_478 (and .def_380 .def_477)))
(let ((.def_479 (or .def_309 .def_478)))
(let ((.def_383 (= b.y__AT1 b.y__AT2)))
(let ((.def_455 (and .def_380 .def_383)))
(let ((.def_386 (= b.speed_y__AT1 b.speed_y__AT2)))
(let ((.def_456 (and .def_386 .def_455)))
(let ((.def_452 (= b.delta__AT1 0.0 )))
(let ((.def_453 (and .def_308 .def_452)))
(let ((.def_454 (not .def_453)))
(let ((.def_457 (or .def_454 .def_456)))
(let ((.def_458 (or b.EVENT.1__AT1 .def_457)))
(let ((.def_445 (and .def_386 .def_394)))
(let ((.def_446 (or b.bool_atom__AT1 .def_445)))
(let ((.def_421 (or .def_9 b.counter.0__AT1)))
(let ((.def_420 (or b.counter.0__AT2 .def_202)))
(let ((.def_422 (and .def_420 .def_421)))
(let ((.def_423 (and .def_6 .def_422)))
(let ((.def_424 (or b.counter.1__AT1 .def_423)))
(let ((.def_419 (or b.counter.1__AT2 .def_192)))
(let ((.def_425 (and .def_419 .def_424)))
(let ((.def_436 (and .def_4 .def_425)))
(let ((.def_437 (or b.counter.2__AT1 .def_436)))
(let ((.def_431 (and .def_6 .def_202)))
(let ((.def_432 (or b.counter.1__AT1 .def_431)))
(let ((.def_433 (and .def_419 .def_432)))
(let ((.def_434 (and b.counter.2__AT2 .def_433)))
(let ((.def_435 (or .def_197 .def_434)))
(let ((.def_438 (and .def_435 .def_437)))
(let ((.def_439 (and b.counter.3__AT2 .def_438)))
(let ((.def_440 (or b.counter.3__AT1 .def_439)))
(let ((.def_426 (and b.counter.2__AT2 .def_425)))
(let ((.def_427 (or b.counter.2__AT1 .def_426)))
(let ((.def_415 (or b.counter.1__AT2 b.counter.1__AT1)))
(let ((.def_413 (and .def_6 b.counter.0__AT2)))
(let ((.def_414 (or .def_192 .def_413)))
(let ((.def_416 (and .def_414 .def_415)))
(let ((.def_417 (and .def_4 .def_416)))
(let ((.def_418 (or .def_197 .def_417)))
(let ((.def_428 (and .def_418 .def_427)))
(let ((.def_429 (and .def_14 .def_428)))
(let ((.def_430 (or .def_211 .def_429)))
(let ((.def_441 (and .def_430 .def_440)))
(let ((.def_189 (* b.speed_y__AT1 b.speed_y__AT1)))
(let ((.def_411 (= .def_189 .def_410)))
(let ((.def_408 (+ b.speed_y__AT1 b.speed_y__AT2)))
(let ((.def_409 (= .def_408 0.0 )))
(let ((.def_412 (and .def_409 .def_411)))
(let ((.def_442 (and .def_412 .def_441)))
(let ((.def_407 (not b.bool_atom__AT1)))
(let ((.def_443 (or .def_407 .def_442)))
(let ((.def_403 (<= 0.0 b.speed_y__AT1)))
(let ((.def_404 (not .def_403)))
(let ((.def_290 (* (- 1.0) b.x__AT1)))
(let ((.def_291 (* b.x__AT1 .def_290)))
(let ((.def_402 (= b.y__AT1 .def_291)))
(let ((.def_405 (and .def_402 .def_404)))
(let ((.def_406 (= b.bool_atom__AT1 .def_405)))
(let ((.def_444 (and .def_406 .def_443)))
(let ((.def_447 (and .def_444 .def_446)))
(let ((.def_448 (and .def_380 .def_447)))
(let ((.def_449 (and .def_383 .def_448)))
(let ((.def_450 (or .def_308 .def_449)))
(let ((.def_451 (or b.EVENT.1__AT1 .def_450)))
(let ((.def_459 (and .def_451 .def_458)))
(let ((.def_480 (and .def_459 .def_479)))
(let ((.def_367 (= b.time__AT1 b.time__AT2)))
(let ((.def_381 (and .def_367 .def_380)))
(let ((.def_384 (and .def_381 .def_383)))
(let ((.def_387 (and .def_384 .def_386)))
(let ((.def_395 (and .def_387 .def_394)))
(let ((.def_398 (and .def_395 .def_397)))
(let ((.def_399 (or .def_285 .def_398)))
(let ((.def_370 (* (- 1.0) b.time__AT2)))
(let ((.def_373 (+ b.delta__AT1 .def_370)))
(let ((.def_374 (+ b.time__AT1 .def_373)))
(let ((.def_375 (= .def_374 0.0 )))
(let ((.def_376 (or .def_309 .def_375)))
(let ((.def_377 (or b.EVENT.1__AT1 .def_376)))
(let ((.def_368 (or .def_308 .def_367)))
(let ((.def_369 (or b.EVENT.1__AT1 .def_368)))
(let ((.def_378 (and .def_369 .def_377)))
(let ((.def_400 (and .def_378 .def_399)))
(let ((.def_364 (= .def_309 b.event_is_timed__AT2)))
(let ((.def_362 (= b.event_is_timed__AT1 .def_308)))
(let ((.def_365 (and .def_362 .def_364)))
(let ((.def_401 (and .def_365 .def_400)))
(let ((.def_481 (and .def_401 .def_480)))
(let ((.def_485 (and .def_481 .def_484)))
(let ((.def_488 (and .def_485 .def_487)))
(let ((.def_489 (and .def_285 .def_488)))
(let ((.def_508 (and .def_489 .def_507)))
(let ((.def_520 (and .def_508 .def_519)))
(let ((.def_318 (* b.x__AT1 b.x__AT1)))
(let ((.def_314 (* 5.0 b.delta__AT1)))
(let ((.def_315 (* b.delta__AT1 .def_314)))
(let ((.def_316 (* (- 1.0) .def_315)))
(let ((.def_321 (+ .def_316 .def_318)))
(let ((.def_322 (+ .def_313 .def_321)))
(let ((.def_323 (+ b.y__AT1 .def_322)))
(let ((.def_324 (<= 0.0 .def_323)))
(let ((.def_354 (not .def_324)))
(let ((.def_336 (* (- 10.0) b.delta__AT1)))
(let ((.def_337 (+ b.speed_y__AT1 .def_336)))
(let ((.def_338 (<= 0.0 .def_337)))
(let ((.def_355 (and .def_338 .def_354)))
(let ((.def_347 (+ b.y__AT1 .def_318)))
(let ((.def_352 (<= 0.0 .def_347)))
(let ((.def_349 (<= b.speed_y__AT1 0.0 )))
(let ((.def_353 (or .def_349 .def_352)))
(let ((.def_356 (or .def_353 .def_355)))
(let ((.def_348 (<= .def_347 0.0 )))
(let ((.def_350 (and .def_348 .def_349)))
(let ((.def_342 (<= .def_337 0.0 )))
(let ((.def_343 (not .def_342)))
(let ((.def_340 (= .def_323 0.0 )))
(let ((.def_341 (not .def_340)))
(let ((.def_344 (or .def_341 .def_343)))
(let ((.def_339 (or .def_324 .def_338)))
(let ((.def_345 (and .def_339 .def_344)))
(let ((.def_326 (* 20.0 b.x__AT1)))
(let ((.def_327 (* b.x__AT1 .def_326)))
(let ((.def_328 (+ .def_189 .def_327)))
(let ((.def_329 (* 20.0 b.y__AT1)))
(let ((.def_331 (+ .def_329 .def_328)))
(let ((.def_334 (<= .def_331 0.0 )))
(let ((.def_335 (not .def_334)))
(let ((.def_346 (or .def_335 .def_345)))
(let ((.def_351 (or .def_346 .def_350)))
(let ((.def_357 (and .def_351 .def_356)))
(let ((.def_332 (<= 0.0 .def_331)))
(let ((.def_333 (not .def_332)))
(let ((.def_358 (or .def_333 .def_357)))
(let ((.def_312 (not .def_311)))
(let ((.def_325 (or .def_312 .def_324)))
(let ((.def_359 (and .def_325 .def_358)))
(let ((.def_360 (or .def_309 .def_359)))
(let ((.def_38 (not b.counter.0__AT0)))
(let ((.def_301 (or b.counter.1__AT0 .def_38)))
(let ((.def_302 (or b.counter.2__AT0 .def_301)))
(let ((.def_41 (not b.counter.2__AT0)))
(let ((.def_36 (not b.counter.1__AT0)))
(let ((.def_39 (and .def_36 .def_38)))
(let ((.def_300 (or .def_39 .def_41)))
(let ((.def_303 (and .def_300 .def_302)))
(let ((.def_304 (or b.counter.3__AT0 .def_303)))
(let ((.def_297 (or .def_39 b.counter.2__AT0)))
(let ((.def_296 (or .def_36 .def_41)))
(let ((.def_298 (and .def_296 .def_297)))
(let ((.def_44 (not b.counter.3__AT0)))
(let ((.def_299 (or .def_44 .def_298)))
(let ((.def_305 (and .def_299 .def_304)))
(let ((.def_292 (<= .def_291 b.y__AT1)))
(let ((.def_293 (and .def_69 .def_292)))
(let ((.def_288 (or .def_285 .def_287)))
(let ((.def_278 (or .def_192 .def_202)))
(let ((.def_282 (or b.counter.3__AT1 .def_278)))
(let ((.def_279 (or b.counter.2__AT1 .def_278)))
(let ((.def_277 (or .def_197 .def_202)))
(let ((.def_280 (and .def_277 .def_279)))
(let ((.def_281 (or .def_211 .def_280)))
(let ((.def_283 (and .def_281 .def_282)))
(let ((.def_289 (and .def_283 .def_288)))
(let ((.def_294 (and .def_289 .def_293)))
(let ((.def_77 (<= 0.0 b.delta__AT0)))
(let ((.def_57 (not b.EVENT.0__AT0)))
(let ((.def_55 (not b.EVENT.1__AT0)))
(let ((.def_74 (and .def_55 .def_57)))
(let ((.def_75 (not .def_74)))
(let ((.def_273 (or .def_75 .def_77)))
(let ((.def_274 (or b.EVENT.1__AT0 .def_273)))
(let ((.def_176 (= b.bool_atom__AT0 b.bool_atom__AT1)))
(let ((.def_171 (= b.counter.0__AT0 b.counter.0__AT1)))
(let ((.def_168 (= b.counter.1__AT0 b.counter.1__AT1)))
(let ((.def_165 (= b.counter.2__AT0 b.counter.2__AT1)))
(let ((.def_163 (= b.counter.3__AT0 b.counter.3__AT1)))
(let ((.def_166 (and .def_163 .def_165)))
(let ((.def_169 (and .def_166 .def_168)))
(let ((.def_172 (and .def_169 .def_171)))
(let ((.def_269 (and .def_172 .def_176)))
(let ((.def_270 (or .def_75 .def_269)))
(let ((.def_271 (or b.EVENT.1__AT0 .def_270)))
(let ((.def_257 (* b.delta__AT0 .def_243)))
(let ((.def_258 (* (- 1.0) b.speed_y__AT1)))
(let ((.def_261 (+ .def_258 .def_257)))
(let ((.def_262 (+ b.speed_y__AT0 .def_261)))
(let ((.def_263 (= .def_262 0.0 )))
(let ((.def_247 (* b.delta__AT0 b.delta__AT0)))
(let ((.def_248 (* .def_246 .def_247)))
(let ((.def_250 (* (- 1.0) b.y__AT1)))
(let ((.def_253 (+ .def_250 .def_248)))
(let ((.def_80 (* b.delta__AT0 b.speed_y__AT0)))
(let ((.def_254 (+ .def_80 .def_253)))
(let ((.def_255 (+ b.y__AT0 .def_254)))
(let ((.def_256 (= .def_255 0.0 )))
(let ((.def_264 (and .def_256 .def_263)))
(let ((.def_154 (= b.x__AT0 b.x__AT1)))
(let ((.def_265 (and .def_154 .def_264)))
(let ((.def_266 (or .def_75 .def_265)))
(let ((.def_157 (= b.y__AT0 b.y__AT1)))
(let ((.def_238 (and .def_154 .def_157)))
(let ((.def_160 (= b.speed_y__AT0 b.speed_y__AT1)))
(let ((.def_239 (and .def_160 .def_238)))
(let ((.def_235 (= b.delta__AT0 0.0 )))
(let ((.def_236 (and .def_74 .def_235)))
(let ((.def_237 (not .def_236)))
(let ((.def_240 (or .def_237 .def_239)))
(let ((.def_241 (or b.EVENT.1__AT0 .def_240)))
(let ((.def_228 (and .def_160 .def_172)))
(let ((.def_229 (or b.bool_atom__AT0 .def_228)))
(let ((.def_203 (or b.counter.0__AT0 .def_202)))
(let ((.def_201 (or .def_38 b.counter.0__AT1)))
(let ((.def_204 (and .def_201 .def_203)))
(let ((.def_205 (and .def_192 .def_204)))
(let ((.def_206 (or b.counter.1__AT0 .def_205)))
(let ((.def_200 (or .def_36 b.counter.1__AT1)))
(let ((.def_207 (and .def_200 .def_206)))
(let ((.def_219 (and .def_197 .def_207)))
(let ((.def_220 (or b.counter.2__AT0 .def_219)))
(let ((.def_214 (and .def_38 .def_192)))
(let ((.def_215 (or b.counter.1__AT0 .def_214)))
(let ((.def_216 (and .def_200 .def_215)))
(let ((.def_217 (and b.counter.2__AT1 .def_216)))
(let ((.def_218 (or .def_41 .def_217)))
(let ((.def_221 (and .def_218 .def_220)))
(let ((.def_222 (and b.counter.3__AT1 .def_221)))
(let ((.def_223 (or b.counter.3__AT0 .def_222)))
(let ((.def_208 (and b.counter.2__AT1 .def_207)))
(let ((.def_209 (or b.counter.2__AT0 .def_208)))
(let ((.def_195 (or b.counter.1__AT0 b.counter.1__AT1)))
(let ((.def_193 (and b.counter.0__AT1 .def_192)))
(let ((.def_194 (or .def_36 .def_193)))
(let ((.def_196 (and .def_194 .def_195)))
(let ((.def_198 (and .def_196 .def_197)))
(let ((.def_199 (or .def_41 .def_198)))
(let ((.def_210 (and .def_199 .def_209)))
(let ((.def_212 (and .def_210 .def_211)))
(let ((.def_213 (or .def_44 .def_212)))
(let ((.def_224 (and .def_213 .def_223)))
(let ((.def_94 (* b.speed_y__AT0 b.speed_y__AT0)))
(let ((.def_190 (= .def_94 .def_189)))
(let ((.def_187 (+ b.speed_y__AT0 b.speed_y__AT1)))
(let ((.def_188 (= .def_187 0.0 )))
(let ((.def_191 (and .def_188 .def_190)))
(let ((.def_225 (and .def_191 .def_224)))
(let ((.def_186 (not b.bool_atom__AT0)))
(let ((.def_226 (or .def_186 .def_225)))
(let ((.def_182 (<= 0.0 b.speed_y__AT0)))
(let ((.def_183 (not .def_182)))
(let ((.def_62 (* (- 1.0) b.x__AT0)))
(let ((.def_63 (* b.x__AT0 .def_62)))
(let ((.def_181 (= b.y__AT0 .def_63)))
(let ((.def_184 (and .def_181 .def_183)))
(let ((.def_185 (= b.bool_atom__AT0 .def_184)))
(let ((.def_227 (and .def_185 .def_226)))
(let ((.def_230 (and .def_227 .def_229)))
(let ((.def_231 (and .def_154 .def_230)))
(let ((.def_232 (and .def_157 .def_231)))
(let ((.def_233 (or .def_74 .def_232)))
(let ((.def_234 (or b.EVENT.1__AT0 .def_233)))
(let ((.def_242 (and .def_234 .def_241)))
(let ((.def_267 (and .def_242 .def_266)))
(let ((.def_141 (= b.time__AT0 b.time__AT1)))
(let ((.def_155 (and .def_141 .def_154)))
(let ((.def_158 (and .def_155 .def_157)))
(let ((.def_161 (and .def_158 .def_160)))
(let ((.def_173 (and .def_161 .def_172)))
(let ((.def_177 (and .def_173 .def_176)))
(let ((.def_178 (or .def_55 .def_177)))
(let ((.def_144 (* (- 1.0) b.time__AT1)))
(let ((.def_147 (+ b.delta__AT0 .def_144)))
(let ((.def_148 (+ b.time__AT0 .def_147)))
(let ((.def_149 (= .def_148 0.0 )))
(let ((.def_150 (or .def_75 .def_149)))
(let ((.def_151 (or b.EVENT.1__AT0 .def_150)))
(let ((.def_142 (or .def_74 .def_141)))
(let ((.def_143 (or b.EVENT.1__AT0 .def_142)))
(let ((.def_152 (and .def_143 .def_151)))
(let ((.def_179 (and .def_152 .def_178)))
(let ((.def_138 (= .def_75 b.event_is_timed__AT1)))
(let ((.def_136 (= b.event_is_timed__AT0 .def_74)))
(let ((.def_139 (and .def_136 .def_138)))
(let ((.def_180 (and .def_139 .def_179)))
(let ((.def_268 (and .def_180 .def_267)))
(let ((.def_272 (and .def_268 .def_271)))
(let ((.def_275 (and .def_272 .def_274)))
(let ((.def_276 (and .def_55 .def_275)))
(let ((.def_295 (and .def_276 .def_294)))
(let ((.def_306 (and .def_295 .def_305)))
(let ((.def_86 (* b.x__AT0 b.x__AT0)))
(let ((.def_82 (* 5.0 b.delta__AT0)))
(let ((.def_83 (* b.delta__AT0 .def_82)))
(let ((.def_84 (* (- 1.0) .def_83)))
(let ((.def_89 (+ .def_84 .def_86)))
(let ((.def_90 (+ .def_80 .def_89)))
(let ((.def_91 (+ b.y__AT0 .def_90)))
(let ((.def_92 (<= 0.0 .def_91)))
(let ((.def_128 (not .def_92)))
(let ((.def_109 (* (- 1.0) b.speed_y__AT0)))
(let ((.def_110 (* 10.0 b.delta__AT0)))
(let ((.def_111 (+ .def_110 .def_109)))
(let ((.def_112 (<= .def_111 0.0 )))
(let ((.def_129 (and .def_112 .def_128)))
(let ((.def_121 (+ b.y__AT0 .def_86)))
(let ((.def_126 (<= 0.0 .def_121)))
(let ((.def_123 (<= b.speed_y__AT0 0.0 )))
(let ((.def_127 (or .def_123 .def_126)))
(let ((.def_130 (or .def_127 .def_129)))
(let ((.def_122 (<= .def_121 0.0 )))
(let ((.def_124 (and .def_122 .def_123)))
(let ((.def_116 (<= 0.0 .def_111)))
(let ((.def_117 (not .def_116)))
(let ((.def_114 (= .def_91 0.0 )))
(let ((.def_115 (not .def_114)))
(let ((.def_118 (or .def_115 .def_117)))
(let ((.def_113 (or .def_92 .def_112)))
(let ((.def_119 (and .def_113 .def_118)))
(let ((.def_96 (* 20.0 b.x__AT0)))
(let ((.def_97 (* b.x__AT0 .def_96)))
(let ((.def_98 (+ .def_94 .def_97)))
(let ((.def_99 (* 20.0 b.y__AT0)))
(let ((.def_101 (+ .def_99 .def_98)))
(let ((.def_104 (<= .def_101 0.0 )))
(let ((.def_105 (not .def_104)))
(let ((.def_120 (or .def_105 .def_119)))
(let ((.def_125 (or .def_120 .def_124)))
(let ((.def_131 (and .def_125 .def_130)))
(let ((.def_102 (<= 0.0 .def_101)))
(let ((.def_103 (not .def_102)))
(let ((.def_132 (or .def_103 .def_131)))
(let ((.def_78 (not .def_77)))
(let ((.def_93 (or .def_78 .def_92)))
(let ((.def_133 (and .def_93 .def_132)))
(let ((.def_134 (or .def_75 .def_133)))
(let ((.def_64 (<= .def_63 b.y__AT0)))
(let ((.def_70 (and .def_64 .def_69)))
(let ((.def_58 (or .def_55 .def_57)))
(let ((.def_48 (or .def_36 .def_38)))
(let ((.def_52 (or b.counter.3__AT0 .def_48)))
(let ((.def_49 (or b.counter.2__AT0 .def_48)))
(let ((.def_47 (or .def_38 .def_41)))
(let ((.def_50 (and .def_47 .def_49)))
(let ((.def_51 (or .def_44 .def_50)))
(let ((.def_53 (and .def_51 .def_52)))
(let ((.def_59 (and .def_53 .def_58)))
(let ((.def_71 (and .def_59 .def_70)))
(let ((.def_42 (and .def_39 .def_41)))
(let ((.def_45 (and .def_42 .def_44)))
(let ((.def_33 (= b.y__AT0 10.0 )))
(let ((.def_29 (= b.x__AT0 0.0 )))
(let ((.def_25 (= b.time__AT0 0.0 )))
(let ((.def_27 (and .def_25 b.event_is_timed__AT0)))
(let ((.def_30 (and .def_27 .def_29)))
(let ((.def_34 (and .def_30 .def_33)))
(let ((.def_46 (and .def_34 .def_45)))
(let ((.def_72 (and .def_46 .def_71)))
(let ((.def_17 (or b.counter.1__AT2 .def_9)))
(let ((.def_18 (or b.counter.2__AT2 .def_17)))
(let ((.def_10 (and .def_6 .def_9)))
(let ((.def_16 (or .def_4 .def_10)))
(let ((.def_19 (and .def_16 .def_18)))
(let ((.def_20 (or b.counter.3__AT2 .def_19)))
(let ((.def_11 (or b.counter.2__AT2 .def_10)))
(let ((.def_7 (or .def_4 .def_6)))
(let ((.def_12 (and .def_7 .def_11)))
(let ((.def_15 (or .def_12 .def_14)))
(let ((.def_21 (and .def_15 .def_20)))
(let ((.def_22 (not .def_21)))
(let ((.def_73 (and .def_22 .def_72)))
(let ((.def_135 (and .def_73 .def_134)))
(let ((.def_307 (and .def_135 .def_306)))
(let ((.def_361 (and .def_307 .def_360)))
(let ((.def_521 (and .def_361 .def_520)))
(let ((.def_575 (and .def_521 .def_574)))
.def_575))))))))))))))))))))))))))))))))))))))))))))))))))))))))))))))))))))))))))))))))))))))))))))))))))))))))))))))))))))))))))))))))))))))))))))))))))))))))))))))))))))))))))))))))))))))))))))))))))))))))))))))))))))))))))))))))))))))))))))))))))))))))))))))))))))))))))))))))))))))))))))))))))))))))))))))))))))))))))))))))))))))))))))))))))))))))))))))))))))))))))))))))))))))))))))))))))))))))))))))))))))))))))))))))))))))))))))))))))))))))))))))))))))))))))))))))))))))))))))))))))))))))))))))))
(check-sat)
(exit)
